p cnf 148 990
c p show 44 105 22 78 3 90 29 28 11 15 75 98 58 61 68 9 56 96 21 109 42 32 142 67 40 65 138 19 14 91 59 33 76 24 69 101 26 46 83 18 79 2 52 16 132 31 111 73 80 70 127 39 135 141 131 48 86 110 25 134 35 84 121 23 13 6 95 81 115 106 104 89 45 144 0
-1 -21 -24 0
31 -9 14 0
34 -10 27 0
-29 -11 -33 0
17 19 24 0
-32 9 -35 0
23 -27 -5 -4 28 0
2 -8 15 0
7 -3 -14 1 -13 12 18 0
-22 -7 5 0
-19 -6 25 16 0
13 11 8 -20 22 -2 0
6 -28 29 26 -31 32 33 3 0
35 21 -30 0
-15 -27 -20 -33 -24 10 14 6 0
-10 26 13 -22 -27 17 -19 -32 0
-1 -2 6 5 28 0
13 -32 -4 33 11 0
25 -24 26 -34 -9 15 14 32 35 -13 -22 -17 0
-2 -24 -18 -10 -27 0
-3 34 -29 -1 16 33 0
12 -2 -22 0
8 -5 18 23 6 34 11 -10 7 15 -29 0
14 -32 8 0
13 32 9 33 0
8 12 -20 13 -24 11 0
-15 -2 35 26 34 7 0
1 -4 33 17 -3 -6 -26 -34 0
-27 -3 -16 23 0
11 25 24 0
10 3 -34 5 0
-5 -19 32 25 -15 -7 -28 6 0
-3 19 25 0
26 -9 11 0
24 -16 32 34 4 0
22 25 33 0
-12 -32 -35 0
-6 -5 0
29 -25 12 30 -34 -8 13 -27 0
26 4 -3 0
5 -6 -17 0
-11 23 21 0
3 33 -29 1 -35 -28 0
-34 27 -25 -14 1 0
-9 -2 -20 0
23 -20 7 -1 28 5 0
8 -35 14 0
7 -1 -3 31 18 0
-16 25 -33 -11 0
-7 8 -24 -32 -27 -12 -6 0
-30 -28 20 13 15 0
-1 -3 10 34 13 0
-22 -5 -19 -26 -30 0
-5 -10 -35 0
-21 -5 34 0
-12 23 -29 -17 1 9 0
32 11 -27 -33 10 24 0
28 -26 -15 0
31 15 -32 0
27 -21 13 0
-9 30 32 -11 -23 0
33 -17 -25 18 21 -15 2 7 -30 -4 0
3 6 -4 0
-13 -3 26 0
12 -13 -25 10 14 7 1 0
25 35 22 0
16 9 -22 11 0
-30 7 23 18 -17 -24 0
-25 -15 28 0
21 -9 8 15 0
-35 21 -9 0
-3 31 21 0
-22 14 16 0
-9 -3 -30 6 8 -17 -12 -4 -27 14 5 0
18 28 -27 13 29 -16 -32 -26 5 -14 2 0
-2 -9 25 0
33 -4 -31 27 -13 30 5 -9 -22 -35 23 0
16 -26 -8 24 0
-5 -23 10 0
29 19 -12 0
-24 19 -28 12 18 -30 -34 0
-27 20 22 18 0
18 5 35 -22 21 -7 2 3 32 17 0
-29 -5 -24 30 9 0
5 20 -14 1 -32 -24 0
-27 -26 29 -10 -33 0
-30 26 9 35 31 -20 -13 0
-33 9 -23 0
-23 14 27 11 10 29 0
-33 -7 6 -34 -19 18 1 22 0
-24 -23 -15 19 0
-12 -22 8 -30 2 23 21 18 0
-8 33 13 -35 5 20 -14 17 3 -24 0
29 -27 21 -25 0
-22 -8 9 31 2 -23 -26 -13 0
-30 26 -21 6 -24 0
-6 -5 -18 0
-14 8 23 0
8 -35 11 -4 20 -1 -14 26 7 0
24 15 -27 -10 9 0
-31 -9 13 23 0
-3 30 18 -26 -29 -23 0
35 -27 -3 -31 0
-28 -7 1 34 0
11 17 -9 27 7 0
-23 -4 14 0
-28 16 14 0
-33 17 -24 4 -18 0
20 13 -21 27 -24 -35 -33 2 3 -17 -1 0
14 -34 -5 -20 -1 8 -12 3 -27 0
27 7 -28 0
-10 -23 0
-1 -34 -25 0
16 -2 24 22 0
-19 -3 -28 -32 -5 0
-8 5 -19 28 0
26 19 3 0
-18 -15 27 10 -20 31 -26 -35 -25 0
16 -7 -13 0
21 -15 -12 24 0
11 18 17 2 -7 -35 0
-14 -18 21 -13 -7 0
-21 1 -27 -6 17 -28 0
-26 9 -19 0
5 -11 15 -29 -30 -24 21 0
2 11 14 0
16 13 -27 -21 33 35 -24 0
-30 23 -5 -15 -35 0
-25 -21 28 17 31 16 0
-34 -20 5 9 0
13 32 -31 0
-11 -27 -20 -30 9 29 52 37 0
-17 43 40 -38 41 -46 -31 0
-32 42 -27 0
-44 -22 25 53 0
15 39 -8 23 0
-41 -23 32 0
-51 10 47 44 -15 0
48 36 54 0
-25 -5 -37 0
49 -39 0
-43 16 46 0
-36 -52 -53 -54 0
19 -48 2 0
-45 -28 21 38 0
-25 -47 11 -29 50 0
-23 -50 -49 45 -5 -35 51 0
30 -42 -22 -12 0
-31 -40 -25 -28 -36 0
-34 -46 -42 16 27 0
-48 39 -41 0
-5 -14 -42 0
36 -46 42 -6 -4 -30 -33 0
-46 -54 24 -40 52 0
52 -41 -10 48 21 -46 -19 -6 -8 -16 0
-24 47 6 22 -9 -49 11 13 0
24 39 10 15 37 0
-1 -25 44 24 -41 0
-19 -36 30 -20 0
37 25 39 32 41 0
-52 7 1 0
-22 -42 52 -34 0
1 21 25 -50 -35 0
35 -53 50 11 38 0
15 42 24 -39 -36 8 -41 0
2 -47 -50 -52 -41 13 0
-31 -3 16 -45 28 -54 14 0
27 -4 -51 0
51 39 40 0
43 -25 53 0
20 -48 -25 0
-54 45 -22 0
25 -9 39 -45 -54 -35 -33 -37 -44 1 0
-21 11 48 1 7 -35 -16 -42 0
-34 53 -48 -39 52 45 0
51 8 -47 -14 0
13 -36 -33 47 2 52 0
-43 -54 0
-2 -25 49 42 -39 -8 -6 11 7 -36 4 0
-45 2 26 0
-36 53 7 52 0
-29 28 -46 -36 0
21 44 17 -5 32 -43 54 -37 0
44 -53 48 49 0
52 -50 0
-54 35 39 -17 -50 -19 0
-10 -35 27 53 52 -23 0
46 -51 50 -32 40 0
-39 -37 -20 0
48 -45 28 -38 32 0
10 -46 15 48 -9 -5 29 0
17 3 -36 -4 48 0
27 -43 2 18 -32 42 20 -9 0
44 41 25 20 -52 -46 -50 0
-10 -40 -24 0
44 47 43 -33 12 0
34 25 -28 -15 41 3 -37 -20 0
1 45 40 0
-32 3 -2 0
10 -24 -48 -27 52 0
9 31 -37 -23 0
-14 -38 -26 0
-14 -36 54 0
23 51 10 43 0
-28 -17 -40 0
-54 -5 -37 -29 -49 -14 -52 0
20 -44 -41 43 -24 29 0
19 -45 -30 41 -24 -15 0
-36 -9 -40 0
29 -35 -24 41 -39 0
27 -52 -9 0
14 46 -40 0
-33 -54 39 46 0
-12 45 -13 0
-23 49 -44 40 33 0
54 22 -35 27 26 36 0
38 -28 42 0
-40 -20 39 0
25 -47 -37 -27 20 0
-3 38 5 0
27 40 -28 5 -31 0
11 -48 -51 0
26 -53 48 -49 -37 -14 46 0
-46 -51 54 -16 -13 22 0
-34 7 -53 33 39 29 50 48 -47 -25 0
35 9 7 -46 -47 -36 -31 41 0
-21 -6 -24 23 -19 0
31 -28 40 0
-32 -45 31 0
18 -45 3 -33 26 0
1 -50 -11 -54 44 40 -49 0
-19 6 52 -47 -35 -29 -37 5 -28 0
9 -4 0
-15 51 -50 0
-35 -2 -52 0
-38 -45 -21 -42 0
-50 42 -38 0
-19 46 -18 0
21 -27 -52 34 -54 0
21 -16 -40 0
28 12 -16 52 0
-43 -31 -19 -54 -35 0
-34 -53 -28 -32 38 0
-31 37 12 -38 15 53 25 0
25 15 47 0
-5 -17 42 0
17 -38 41 0
-27 3 -39 0
14 42 -10 38 50 -22 51 -53 -45 0
37 41 49 10 0
-25 30 2 0
21 -36 -41 -53 0
-1 10 -32 0
-35 6 26 47 -16 0
-28 -37 -40 -25 0
-32 -47 39 0
50 -45 -38 0
-21 -49 14 -53 31 0
32 12 38 19 -13 0
-6 -32 44 0
50 5 26 0
43 47 -42 -23 0
-49 -34 -15 -17 3 -8 32 0
-16 -51 -47 0
-14 32 12 0
14 -35 -48 9 36 0
-40 -43 7 -5 45 13 -35 0
54 38 -41 -49 39 0
-27 6 41 54 0
-30 -13 -28 0
-21 36 -41 0
50 37 12 45 0
14 -6 -43 0
37 7 -41 45 0
48 -19 27 37 -41 -24 0
-43 -13 -19 31 -23 0
-6 51 36 -8 45 13 0
44 51 -3 0
6 52 14 33 0
54 13 20 -22 0
-7 -19 -21 -46 0
-41 -33 -45 -32 9 0
-12 54 32 -53 9 6 0
16 45 -19 0
-52 -32 -6 -53 -51 0
18 48 7 0
-43 35 0
-2 -37 32 0
-16 -17 41 40 -48 35 37 0
-32 -3 -54 -1 39 20 0
41 -34 27 -1 3 -15 0
40 -50 14 48 0
34 -33 -30 0
-26 -48 -52 0
-38 -51 -46 0
42 -52 -33 -5 0
39 9 -74 67 0
76 46 -37 64 0
15 -62 -51 73 0
40 -59 6 0
-43 1 -39 0
72 -64 -55 70 0
74 -76 40 0
-26 -47 -36 17 -72 51 -39 -56 66 10 0
-45 62 56 -61 0
-69 26 65 -57 11 0
-66 -36 -18 0
59 -36 50 -75 -46 -3 -68 -63 -41 0
-70 57 55 0
-23 -58 36 12 34 69 -22 0
-73 -48 -65 49 0
20 47 44 0
35 58 -37 -10 0
-46 -67 32 -71 0
34 75 68 61 71 -60 0
63 2 16 0
60 -55 -76 -40 0
-32 30 22 0
71 -15 -45 0
-40 67 35 0
-53 -76 -68 60 -29 58 0
60 -73 -1 -72 -11 10 0
52 61 48 0
-37 -11 36 72 -40 0
33 -73 55 0
-23 -36 58 0
14 -59 43 0
14 62 -76 73 0
20 41 74 -69 61 0
-60 36 -31 0
39 -22 -35 0
22 -37 -63 -73 13 -33 29 0
-72 56 -51 -75 -71 65 0
2 -46 15 0
66 -43 55 0
30 21 -53 51 0
-64 -17 -2 13 -21 -20 0
-50 1 67 17 63 60 -73 -70 10 65 -48 0
26 -74 -57 44 0
-24 -76 75 -67 0
-69 -15 55 74 0
57 -52 -25 0
37 -64 50 0
-49 -68 72 51 41 0
-65 46 51 0
71 -39 37 0
-67 -13 20 50 37 16 0
-3 34 -60 0
43 -2 -47 -54 0
-36 18 5 0
74 15 -38 -24 -39 9 -66 72 40 0
10 -31 -72 -41 0
-42 43 72 38 0
-57 59 44 0
-76 55 48 -56 0
63 41 68 1 6 52 -69 -61 -56 46 0
76 -61 -25 0
-38 -76 -75 6 0
4 -1 35 0
53 -35 -64 -61 14 58 0
-40 72 -56 50 -1 66 -73 58 59 -71 -41 0
-35 -44 14 -68 -36 0
-69 65 20 -58 0
-72 50 18 0
-12 66 -56 58 31 -59 19 0
53 -63 -59 54 10 -75 -55 44 0
65 62 61 32 55 0
-38 -70 67 0
66 34 -49 75 -65 39 -53 -68 0
-72 -13 -47 64 0
-44 -75 -54 -39 -29 0
39 55 -68 -32 -61 0
-10 48 44 -71 -26 -46 63 -70 -67 0
-58 -44 -71 -55 63 21 -67 68 0
67 40 -48 -57 -69 51 -58 0
-2 -20 70 59 58 68 -17 71 0
-66 5 -35 -47 -67 59 26 72 -6 -64 0
65 -39 44 59 0
2 -47 1 37 73 -13 0
-57 28 70 8 -74 0
74 -45 -48 0
-36 63 -17 -59 -76 16 0
-41 -51 52 -21 -20 54 -71 -70 0
-60 42 63 1 -16 -5 0
74 -66 -14 0
29 -43 -75 0
63 -56 42 54 65 0
69 -56 70 -76 72 52 8 -20 0
37 47 -55 56 0
51 -75 44 -74 0
-76 38 74 2 -45 0
25 -66 6 0
-54 -9 -53 55 0
-68 -69 52 0
65 -55 64 30 -20 -61 67 40 0
-8 38 9 0
-72 -54 -68 0
69 -49 -29 0
-62 -70 1 39 -13 8 68 74 76 0
-60 43 63 71 0
61 -64 29 72 -48 0
72 74 -68 -62 0
-51 46 -54 -52 68 0
-62 -36 -25 0
-57 49 70 55 0
-70 40 -51 -7 -41 2 0
8 -50 61 68 0
17 -55 57 -63 3 0
-67 -75 -27 -20 -53 -62 59 0
-55 -38 -49 71 -60 0
-16 28 59 3 -58 0
-9 -6 -58 60 0
-61 32 -16 -60 0
-48 -49 -21 0
-52 6 16 71 0
-27 -9 25 65 0
-76 -56 65 -15 0
-71 -57 -44 0
-55 -59 69 27 67 -54 -25 -13 36 0
62 -72 57 -69 -60 0
-28 -14 64 0
-60 -4 59 0
70 -23 -44 -53 -74 0
58 64 -10 71 60 37 -15 0
-68 76 -13 0
66 53 -59 0
-74 56 -27 76 -55 0
67 -55 37 0
61 46 60 67 74 0
56 58 48 0
-34 54 -42 0
55 -76 66 -43 16 0
57 -71 59 0
-58 -46 -65 0
51 31 -54 0
-75 -62 -57 0
-5 76 -74 0
75 -76 -42 12 74 63 37 0
-49 -73 56 0
68 -57 33 49 0
67 31 76 0
53 55 -64 76 0
17 38 -52 0
37 -6 -62 -53 -73 59 0
66 54 57 -70 -3 0
17 -40 62 71 0
57 -27 54 -37 60 -13 44 0
65 -66 -68 0
59 -10 36 -60 32 -24 68 0
37 51 -56 0
39 63 -74 13 -45 73 -62 42 0
65 66 -13 20 -10 0
-59 -28 -56 -61 0
36 -67 71 69 72 -5 50 -40 0
69 49 30 0
64 -14 -45 -66 8 0
60 -62 -55 -1 0
62 57 -50 65 0
-55 -73 47 56 0
-77 16 51 100 0
-72 -82 52 -93 -60 92 90 111 0
63 -113 -106 37 99 -81 -40 0
-92 -31 78 0
83 -96 -71 -87 -36 -54 -26 -97 93 0
98 106 -103 40 0
40 58 -69 0
-104 -86 36 58 -102 89 0
96 -100 -53 0
-101 -40 10 107 -46 -80 4 11 95 -69 -59 0
64 17 -55 87 77 -25 0
-45 101 94 0
48 112 -65 0
80 -55 -42 59 -67 50 0
79 84 91 88 -98 -89 70 22 -56 -9 -37 -36 105 85 0
108 86 -95 0
55 56 104 75 -73 -61 -69 -111 0
-83 -63 74 0
-108 75 109 0
-99 -75 82 3 0
-53 103 -90 -42 -107 97 -94 0
-4 -84 -112 -79 110 0
-78 81 -110 -91 8 0
-58 102 113 -88 -64 0
63 -109 -85 0
-45 -105 -37 -1 0
-107 87 89 -32 -63 0
59 8 -68 -62 0
64 68 2 -75 101 98 58 0
98 39 109 58 74 -63 111 -94 112 0
-66 91 38 0
-93 -101 -82 95 0
-70 -94 45 0
77 36 68 -23 112 39 -85 -20 0
19 42 107 -112 82 83 46 91 0
-81 58 -109 0
-58 87 -88 -107 40 90 53 36 -51 98 -99 0
-75 50 6 109 -80 69 0
61 94 67 0
5 -87 93 -9 -113 -110 -103 -105 97 84 111 0
-76 78 68 -12 91 0
81 52 -61 84 -107 30 -67 0
73 47 -109 -51 0
69 83 58 77 0
30 -57 -79 0
-36 -95 -84 -105 -110 -67 -66 -65 0
-113 -17 105 -40 51 0
-70 50 111 0
-98 4 -13 -113 -15 56 -65 -57 60 99 -107 0
-8 109 -89 106 70 -92 -91 0
100 68 -22 12 -92 101 79 0
-112 111 -4 9 -55 0
-57 74 -66 64 16 -29 -90 -84 -55 72 -83 0
-52 -82 -55 -63 -59 0
-45 -43 112 0
-37 95 -87 -98 0
107 -21 -17 68 0
111 -68 -19 0
15 85 -30 77 -74 37 96 -99 42 55 88 3 -87 0
-35 98 75 -31 0
39 -113 86 0
95 -70 39 0
112 83 -64 -70 -71 52 -69 -111 0
42 -85 75 -13 0
-62 -86 80 0
106 76 69 77 0
95 87 37 92 -88 -58 35 0
101 10 67 0
104 -94 89 57 0
84 104 70 101 -82 75 54 0
73 106 4 -62 48 -110 0
61 107 93 0
96 -104 -75 -4 112 81 -56 0
110 -58 107 0
-85 103 -77 99 -93 0
-25 -105 -3 91 -18 0
-95 -53 71 0
-93 39 -59 0
-58 -99 -70 0
49 12 -60 0
74 -42 -86 7 -76 26 -93 -95 -92 0
113 -107 105 -72 58 0
101 -82 -60 33 0
-96 105 -71 79 -103 0
-23 75 -55 52 0
-98 86 23 -73 0
68 -94 -64 0
-103 43 100 80 0
81 75 -95 -83 68 53 1 -39 -78 61 0
81 98 -103 0
-68 103 -67 0
-69 -98 0
-31 -82 42 111 81 103 43 104 3 -99 0
-65 104 91 90 0
-105 -89 90 0
-108 83 -109 0
-76 75 -62 98 0
-66 -61 -87 105 0
96 90 87 69 0
-61 86 -77 -84 72 40 0
100 -53 -110 83 -66 0
96 -91 88 -55 81 0
83 18 111 0
107 97 -37 0
-89 -108 -24 0
-70 -37 -112 92 -110 -73 0
107 59 70 -101 -24 0
-71 107 56 87 -106 4 -9 0
103 -85 -64 -42 -95 76 -4 88 0
-59 -101 89 0
-63 54 88 0
-74 59 -15 -93 0
-61 -77 -95 101 0
78 82 113 -55 0
41 38 0
43 -91 -112 113 82 0
-70 -44 102 -101 0
-94 -87 63 0
103 -109 -1 0
-90 -62 -37 0
69 61 -110 0
-96 94 -107 0
-22 105 62 97 0
85 -109 57 10 84 -81 65 101 0
-42 -81 68 60 0
63 -111 -54 84 -60 0
-48 82 89 -107 -108 0
95 -98 37 -77 63 0
18 -11 61 60 -71 -63 -20 74 16 -109 0
-97 -106 -75 93 63 59 0
108 -54 -13 90 0
83 108 106 88 27 0
94 44 60 -95 64 66 0
105 59 -97 -76 -73 -12 0
-63 41 -111 -110 0
-22 67 -19 0
-101 -36 -93 -64 -99 82 -89 30 -87 -38 81 0
-15 57 -67 -103 0
97 69 -91 0
61 77 58 107 -40 0
-86 69 43 -101 -37 0
-60 63 -76 -83 1 -98 69 0
83 -113 -63 0
2 94 -110 109 0
78 76 -63 0
-103 105 -92 -104 -56 -36 77 38 -93 0
112 83 51 -91 41 95 0
92 -108 94 58 101 20 0
99 -109 -60 0
59 -82 54 0
95 -87 75 65 73 -16 61 -6 -14 0
75 112 -86 -110 -87 99 100 0
85 80 109 0
110 43 12 101 0
50 -11 65 95 -85 -72 100 0
38 93 -9 -91 -72 -37 -53 -58 40 0
62 36 7 -87 -105 -76 -107 0
-52 -37 88 54 3 95 56 0
3 -82 -98 0
98 82 62 -53 0
-79 -60 71 54 -69 111 -77 -59 -68 0
-93 47 62 56 0
92 81 49 60 0
-45 -92 -66 -78 55 50 -74 -94 0
-86 70 96 78 -66 0
107 66 64 0
-93 47 75 0
-55 -83 -52 16 35 66 0
-51 44 95 -48 -105 0
113 -106 110 -52 72 0
-10 -7 73 0
-79 39 -40 0
-74 12 -87 0
90 50 46 -37 0
27 98 -30 -87 80 -78 -73 0
-85 106 -79 63 0
-100 84 86 0
-2 84 -83 0
-69 -105 -27 -42 -82 0
110 80 -79 0
82 11 108 63 81 -100 -69 72 85 -60 43 84 -48 19 33 0
110 112 106 -63 -86 59 -99 -81 0
45 -36 91 0
59 -83 87 49 108 0
59 62 -61 -11 96 0
-70 -91 -111 -78 47 41 -67 -58 81 -37 -77 0
87 -61 72 76 0
-112 76 23 0
100 -99 -53 -113 0
-59 -110 45 0
-82 -106 56 0
57 -86 -78 0
-82 -51 69 -64 -2 79 -38 0
57 94 -76 -1 0
-64 -77 -3 -93 -82 0
58 -110 -44 -73 0
-108 129 -120 -5 -136 124 0
-98 -114 -119 0
117 -48 -111 -128 0
133 97 -116 -122 0
130 -5 -37 -55 -12 0
93 -17 62 104 98 -135 0
128 83 87 0
100 120 119 0
112 -72 -16 135 0
125 -124 -130 0
126 -127 -99 0
134 96 -123 -99 0
96 121 0
-18 123 -134 -132 -43 0
-99 -18 60 3 0
-113 94 114 122 0
136 92 110 0
-53 132 115 -117 0
61 -121 85 -115 0
116 -57 -118 78 -125 0
-85 -131 -80 12 71 87 127 0
118 -133 79 131 0
-76 101 -126 -6 88 -38 -111 0
88 -54 -64 25 0
-129 -126 -132 -122 -118 -57 14 0
-116 127 -130 -125 -78 -122 -60 -119 135 -132 -4 -126 106 -45 74 -128 0
-107 117 -127 66 105 48 -94 -136 -56 0
125 -123 -110 0
104 -54 -25 0
50 -56 75 0
-34 128 48 0
-125 39 -126 -135 0
-58 -114 121 0
55 -57 -99 0
91 -136 90 0
118 123 126 -79 -6 0
68 48 0
-125 84 102 -122 -89 -75 0
-136 129 -126 -59 114 127 -123 -97 89 -86 132 0
-101 -121 126 0
-130 134 -91 -133 0
90 -130 -125 -96 -89 -31 22 128 67 0
-114 -104 -130 0
63 -97 -135 23 0
117 -124 -118 47 80 129 -134 94 128 -119 0
-131 -56 -129 0
95 -63 129 -122 0
116 -16 -92 0
117 108 61 0
131 20 132 124 0
-73 126 132 -135 0
125 -127 134 124 0
115 -72 116 133 0
130 131 -134 -136 0
-133 122 -72 -3 132 -123 102 120 0
-117 -114 -37 -136 0
60 -85 55 0
-136 100 -120 70 0
122 114 -96 0
60 119 41 -134 132 130 -42 -31 -95 -124 -116 37 123 0
-116 9 -131 -95 123 -122 0
-87 113 -30 119 -92 -122 49 -136 0
65 -129 92 132 68 -118 0
-128 118 52 0
-125 136 79 -46 0
93 78 104 -128 87 -114 -96 101 102 89 -24 120 106 127 100 0
119 129 -127 -136 -121 128 0
-134 128 -62 0
-116 124 93 -62 114 0
-130 123 -120 -94 0
-120 -132 2 0
103 115 -51 88 131 0
-129 109 128 22 -98 121 0
-76 125 5 36 -119 13 132 0
-94 106 82 -130 -133 0
42 -105 134 -125 -62 0
136 -135 117 74 -69 0
-115 123 -117 -133 -110 0
-99 -43 74 131 35 -80 -63 0
131 77 6 98 -122 0
-35 123 -90 0
-11 119 -122 -82 -109 -65 0
93 111 -71 104 -86 0
-10 -107 122 118 56 121 0
64 -131 -128 37 108 0
136 98 -114 -77 -18 0
-136 76 -102 128 -19 -134 129 -89 0
134 64 -135 -90 119 48 0
42 95 -59 0
-117 -73 105 121 -81 108 0
-116 -69 68 89 0
-110 -81 126 -90 0
-75 -115 116 0
-95 63 132 50 107 -116 0
-136 -134 -131 24 -73 55 75 0
125 -122 105 0
-133 131 37 136 -56 0
-115 131 45 -78 -119 -71 -101 0
-13 68 87 0
-109 -29 -135 136 125 -120 0
-132 -131 -107 134 -126 72 -64 -22 0
-118 135 123 0
99 -134 -121 0
-114 -121 81 0
-42 23 96 0
-83 13 -116 0
132 -117 123 125 136 -107 -115 0
-128 -102 -135 0
-122 133 123 88 50 -72 0
-56 -118 127 0
-134 -128 -122 0
-116 -121 -126 117 0
-103 54 -118 -122 -113 -135 128 98 -114 0
-95 -66 -74 0
135 0
133 -116 -45 0
92 -48 117 -87 0
61 132 -10 -126 -125 0
-126 128 134 0
26 13 -131 118 0
-55 76 109 -130 -105 0
-124 -71 -46 0
-15 134 -92 -109 0
113 -126 -133 0
125 121 117 -33 128 -76 -126 -108 -116 0
65 -130 -82 134 0
85 77 -40 132 0
-99 -92 134 65 112 109 102 135 127 56 0
123 78 121 -100 125 -114 0
-20 -118 -46 -109 0
-91 87 49 114 -129 64 -119 0
123 69 -22 0
-131 87 107 -11 24 127 -113 -130 0
84 -114 65 0
39 108 -59 117 111 0
31 -57 111 0
129 -126 -123 115 125 104 0
102 82 117 0
-122 115 130 125 -12 -59 0
-122 134 130 0
134 48 59 0
83 118 127 -135 -75 -120 126 0
-120 -123 -89 83 0
-77 121 -97 -30 0
102 103 -86 -123 95 135 76 -23 0
88 119 -84 -126 116 81 -114 131 -132 0
65 116 -115 0
124 50 100 -131 7 -123 0
134 116 55 28 13 -76 0
71 135 68 0
-123 133 114 0
-104 -120 -130 -122 0
-124 -48 123 72 -125 -56 -80 132 134 -109 78 -111 -121 -73 -38 117 0
45 -134 127 -125 -129 0
-90 -113 -133 0
88 123 -79 -94 58 0
97 83 -115 -120 131 0
113 93 78 -80 114 -105 135 86 118 0
-38 -134 -104 -103 0
135 130 -114 -63 -119 0
-42 -133 106 118 128 114 37 -99 0
-122 129 116 -124 -115 123 -93 62 125 0
-125 -121 -44 129 -114 89 0
-120 135 116 -88 99 113 -118 0
122 -55 126 116 0
-106 -89 115 -97 36 0
63 -128 -34 125 68 0
110 -135 129 115 128 4 57 0
77 44 -96 0
61 121 136 128 0
111 -114 -91 0
63 -128 -60 71 -117 0
-87 94 -118 -114 0
-101 78 -103 0
-6 -118 131 0
-126 -112 -127 0
-117 36 -74 0
-85 -136 -73 -91 0
92 121 125 -72 12 0
10 127 133 74 0
-87 -130 -79 59 0
132 79 121 85 0
68 103 130 134 0
103 69 132 0
131 -101 -132 25 0
100 -136 -128 -118 -126 127 0
-129 -125 -115 0
-64 131 -132 -100 127 105 79 0
-11 -119 -110 19 0
-87 124 -80 117 130 48 -119 -74 54 132 -126 108 0
-135 -134 -123 132 -129 -68 0
-107 102 -44 28 -29 0
-126 93 64 0
-135 71 -32 -108 7 0
95 24 126 0
127 -105 86 133 123 0
-130 136 117 0
-72 -70 127 -115 136 -105 0
77 -129 65 68 95 -130 -104 124 -115 -45 -114 116 -75 -134 125 0
-70 58 146 -129 -88 133 0
123 115 -131 141 -132 0
-147 -146 137 0
-144 -128 -95 0
-148 126 -92 -142 -58 130 -138 0
145 20 0
89 -121 -96 0
142 133 -137 -131 138 0
148 118 -140 -97 0
124 -143 139 -113 147 100 0
140 -145 -121 0
118 143 130 47 121 0
134 -139 -141 -122 103 144 0
-141 -148 0
-137 -121 -142 0
-68 140 -64 -123 0
-121 144 99 0
138 114 146 0
118 142 100 148 -143 -144 0
126 -144 -148 0
147 143 -131 -127 0
147 -145 -89 0
-121 115 -80 -138 -139 0
148 131 145 -61 -140 40 139 -105 141 83 -142 93 0
-112 -143 -91 0
-144 142 -136 0
142 -136 -148 116 -101 0
-104 61 -132 0
100 16 141 0
126 -139 146 0
-146 -144 139 0
132 141 127 -113 0
-128 101 140 -146 -141 0
-125 -145 -138 147 0
140 -33 -114 -128 11 -136 75 82 88 -145 0
-140 86 -66 129 -62 147 -144 99 -98 -113 -138 67 121 0
119 144 -148 0
-142 38 -143 0
137 142 145 -124 0
94 15 -139 0
137 120 -140 -60 -138 0
-141 63 -128 -66 -126 -86 133 143 -139 -144 116 0
-147 124 -109 127 0
-145 127 139 143 -67 -125 148 -69 0
-123 14 -67 -128 147 0
126 -125 -139 -146 118 134 127 122 -16 128 -101 0
140 -128 56 131 0
-137 142 -107 -122 -85 0
-131 140 143 48 142 0
-138 140 123 0
118 147 144 145 -114 0
139 -143 49 0
-131 76 109 20 95 0
9 45 -145 0
-139 -141 20 -137 0
-146 -130 139 114 137 133 0
142 141 0
-127 123 50 56 0
147 -146 148 -128 135 -143 140 113 0
-147 117 145 -55 0
144 147 -128 0
-94 144 -143 0
-101 139 0
-79 -93 32 86 92 -131 144 0
-148 11 141 142 0
-144 -134 -59 0
-147 -146 0
-70 -114 144 121 0
117 -111 133 -141 0
-148 141 -143 -133 0
-140 -78 -50 137 -130 0
146 79 -143 0
46 -147 148 0
142 -85 -65 0
-118 -147 138 -129 -119 0
143 -131 148 0
102 114 -144 0
-124 -138 -130 97 136 -43 -75 0
72 -132 -140 -137 0
121 -87 59 -138 -140 -112 145 0
145 -89 0
-46 -131 141 144 0
122 139 75 0
97 -119 -148 -130 -147 0
-138 145 107 0
133 -143 146 0
146 -74 -139 0
122 139 -62 148 128 -104 0
-119 133 140 -145 -125 0
-77 -130 140 -145 -115 0
-68 -141 76 -130 67 139 -46 126 138 -124 0
138 142 -144 -137 0
110 -117 62 -131 69 8 -121 144 129 0
-115 120 0
146 139 -133 -141 79 136 0
127 -142 78 0
-78 -137 144 115 146 131 -71 92 134 38 75 141 142 0
147 -141 -137 -143 99 145 0
125 67 121 -139 127 0
125 143 71 13 121 -145 -147 -115 -146 0
39 137 117 0
131 -129 145 0
141 -147 0
133 140 -96 0
-146 -82 139 -110 0
-97 144 134 58 120 4 132 112 -142 -141 0
-141 -131 -142 -140 -104 0
-121 139 -145 -48 77 0
137 134 -77 0
126 144 -141 0
-148 95 -119 0
-119 139 -144 0
125 -141 -128 0
-43 -81 119 0
-148 134 127 -141 -137 142 115 0
139 132 -148 -69 145 125 137 90 -129 0
117 -141 143 0
-147 114 94 0
143 -132 139 0
129 137 55 84 0
-141 125 -136 -144 -142 0
145 -144 -125 0
148 141 -125 132 104 0
-148 121 86 0
-148 116 -145 0
119 129 -145 -144 -124 -138 -141 76 0
-140 143 -141 0
136 118 142 -62 122 -90 120 139 0
137 91 121 133 0
-146 138 -122 -64 0
58 -142 -139 134 130 -137 129 0
147 -127 146 -137 138 0
-83 -137 -139 57 0
-124 -26 132 0
