c seed 187674694
c max width 12
c layers 1
c layer[0] = [1..12] w=12 v=12 c=42 r=3.50
p cnf 12 42
5 -3 -12 0
10 -4 3 -8 11 -7 0
6 -1 -10 -11 -9 0
2 8 7 0
-5 4 -2 0
9 12 1 -6 -3 -5 2 0
8 -10 7 1 4 0
-9 -1 7 0
3 -6 8 2 4 -10 0
8 12 -6 -3 -9 11 0
10 -2 -12 -7 6 4 -9 -1 0
-7 -9 1 6 -4 0
-10 9 -4 0
-11 -5 0
2 6 11 -9 0
8 2 0
5 6 -9 0
-2 11 -12 0
-10 1 -5 6 -11 4 -9 0
9 12 11 -6 0
11 2 -10 0
6 -4 0
-5 3 11 0
-1 12 5 -7 -4 0
1 -12 -7 5 9 0
5 -9 -6 0
-8 4 -3 2 -11 5 -9 -10 0
-2 -12 -11 10 0
-3 8 -5 6 0
8 -9 0
-12 5 0
3 -12 8 -2 0
4 -7 -9 0
-4 -1 -2 0
11 5 10 12 7 0
-6 5 -10 12 7 0
-8 5 -2 1 0
6 9 -11 0
8 -5 0
-8 -12 10 0
9 -6 5 0
12 8 0
w 1 1.00
w -1 0
w 2 0.96
w -2 0.04
w 3 0.92
w -3 0.08
w 4 0.48
w -4 0.52
w 5 0.20
w -5 0.80
w 6 0.06
w -6 0.94
w 7 0.29
w -7 0.71
w 8 0.34
w -8 0.66
w 9 0.40
w -9 0.60
w 10 0.36
w -10 0.64
w 11 0.01
w -11 0.99
w 12 0.39
w -12 0.61
