c 2022-05-25 15:24:34 by qbfdd.py,v 1.2.2
c qbfdd.py /tmp/1test.cnf /home/lagniez/Works/Softs/d4/scripts/testPreproc.sh -m ddmin -g b -qS
c 
c mode: ddmin
c rounds: 3
c test runs: 5941
c time elapsed: 384.95s
c total: clauses  : -72 (75.00%)
c        variables: -0 (0.00%)
c        literals : -355 (83.14%)
c 
p cnf 27 24
12 8 1 0
-17 -27 0
-4 -26 25 -3 0
-19 6 5 0
-2 26 -13 0
24 -6 -15 0
11 -1 18 0
-20 15 0
18 6 -19 -20 -12 0
1 6 20 0
-1 2 0
19 20 -17 0
11 -4 -24 0
5 -3 4 0
23 -24 -17 25 26 0
5 -8 1 0
-17 -18 -15 3 0
15 1 0
-15 25 -26 19 -17 0
16 0
-5 -3 15 0
-20 3 0
18 19 -5 0
-4 6 0
